\Problem name: compact

Minimize
OBJROW: C
Subject To
ord(0,1):  x(0,0) - x(0,2) >= 10
ord(0,2):  - x(0,0) + x(0,1) >= 8
ord(1,1):  x(1,0) - x(1,1) >= 6
ord(1,2):  - x(1,0) + x(1,2) >= 9
ord(2,1):  x(2,0) - x(2,1) >= 9
ord(2,2):  - x(2,0) + x(2,2) >= 1
triangle2(0,1,0):  y(0,1,0) + y(1,0,0) = 1
triangle2(0,1,1):  y(0,1,1) + y(1,0,1) = 1
triangle2(0,1,2):  y(0,1,2) + y(1,0,2) = 1
triangle2(0,2,0):  y(0,2,0) + y(2,0,0) = 1
triangle2(0,2,1):  y(0,2,1) + y(2,0,1) = 1
triangle2(0,2,2):  y(0,2,2) + y(2,0,2) = 1
triangle2(1,2,0):  y(1,2,0) + y(2,1,0) = 1
triangle2(1,2,1):  y(1,2,1) + y(2,1,1) = 1
triangle2(1,2,2):  y(1,2,2) + y(2,1,2) = 1
MCLinV(0,1,0):  x(0,0) - v(0,1,0) - x(1,0) = 9
MCLinV(1,0,0):  - x(0,0) - v(1,0,0) + x(1,0) = 8
MCLin1(0,1,0):  u(0,1,0) >= -0
MCLin2(0,1,0):  -38 y(1,0,0) - u(0,1,0) <= -0
MCLin3(0,1,0):  29 y(1,0,0) + v(0,1,0) - u(0,1,0) <= 29
MCLin4(0,1,0):  29 y(1,0,0) - u(0,1,0) >= -0
MCLin5(0,1,0):  -38 y(1,0,0) + v(0,1,0) - u(0,1,0) >= -38
MCLin6(1,0,0):  u(1,0,0) >= -0
MCLin7(1,0,0):  -46 y(0,1,0) - u(1,0,0) <= -0
MCLin8(1,0,0):  21 y(0,1,0) + v(1,0,0) - u(1,0,0) <= 21
MCLin9(1,0,0):  21 y(0,1,0) - u(1,0,0) >= -0
MCLin10(1,0,0):  -46 y(0,1,0) + v(1,0,0) - u(1,0,0) >= -46
MCLinV(0,1,1):  x(0,1) - v(0,1,1) - x(1,1) = 6
MCLinV(1,0,1):  - x(0,1) - v(1,0,1) + x(1,1) = 2
MCLin1(0,1,1):  u(0,1,1) >= -0
MCLin2(0,1,1):  -21 y(1,0,1) - u(0,1,1) <= -0
MCLin3(0,1,1):  46 y(1,0,1) + v(0,1,1) - u(0,1,1) <= 46
MCLin4(0,1,1):  46 y(1,0,1) - u(0,1,1) >= -0
MCLin5(0,1,1):  -21 y(1,0,1) + v(0,1,1) - u(0,1,1) >= -21
MCLin6(1,0,1):  u(1,0,1) >= -0
MCLin7(1,0,1):  -54 y(0,1,1) - u(1,0,1) <= -0
MCLin8(1,0,1):  13 y(0,1,1) + v(1,0,1) - u(1,0,1) <= 13
MCLin9(1,0,1):  13 y(0,1,1) - u(1,0,1) >= -0
MCLin10(1,0,1):  -54 y(0,1,1) + v(1,0,1) - u(1,0,1) >= -54
MCLinV(0,1,2):  x(0,2) - v(0,1,2) - x(1,2) = 6
MCLinV(1,0,2):  - x(0,2) - v(1,0,2) + x(1,2) = 10
MCLin1(0,1,2):  u(0,1,2) >= -0
MCLin2(0,1,2):  -54 y(1,0,2) - u(0,1,2) <= -0
MCLin3(0,1,2):  13 y(1,0,2) + v(0,1,2) - u(0,1,2) <= 13
MCLin4(0,1,2):  13 y(1,0,2) - u(0,1,2) >= -0
MCLin5(0,1,2):  -54 y(1,0,2) + v(0,1,2) - u(0,1,2) >= -54
MCLin6(1,0,2):  u(1,0,2) >= -0
MCLin7(1,0,2):  -29 y(0,1,2) - u(1,0,2) <= -0
MCLin8(1,0,2):  38 y(0,1,2) + v(1,0,2) - u(1,0,2) <= 38
MCLin9(1,0,2):  38 y(0,1,2) - u(1,0,2) >= -0
MCLin10(1,0,2):  -29 y(0,1,2) + v(1,0,2) - u(1,0,2) >= -29
MCLinV(0,2,0):  x(0,0) - v(0,2,0) - x(2,0) = 1
MCLinV(2,0,0):  - x(0,0) - v(2,0,0) + x(2,0) = 8
MCLin1(0,2,0):  u(0,2,0) >= -0
MCLin2(0,2,0):  -41 y(2,0,0) - u(0,2,0) <= -0
MCLin3(0,2,0):  34 y(2,0,0) + v(0,2,0) - u(0,2,0) <= 34
MCLin4(0,2,0):  34 y(2,0,0) - u(0,2,0) >= -0
MCLin5(0,2,0):  -41 y(2,0,0) + v(0,2,0) - u(0,2,0) >= -41
MCLin6(2,0,0):  u(2,0,0) >= -0
MCLin7(2,0,0):  -43 y(0,2,0) - u(2,0,0) <= -0
MCLin8(2,0,0):  32 y(0,2,0) + v(2,0,0) - u(2,0,0) <= 32
MCLin9(2,0,0):  32 y(0,2,0) - u(2,0,0) >= -0
MCLin10(2,0,0):  -43 y(0,2,0) + v(2,0,0) - u(2,0,0) >= -43
MCLinV(0,2,1):  x(0,1) - v(0,2,1) - x(2,1) = 9
MCLinV(2,0,1):  - x(0,1) - v(2,0,1) + x(2,1) = 2
MCLin1(0,2,1):  u(0,2,1) >= -0
MCLin2(0,2,1):  -32 y(2,0,1) - u(0,2,1) <= -0
MCLin3(0,2,1):  43 y(2,0,1) + v(0,2,1) - u(0,2,1) <= 43
MCLin4(0,2,1):  43 y(2,0,1) - u(0,2,1) >= -0
MCLin5(0,2,1):  -32 y(2,0,1) + v(0,2,1) - u(0,2,1) >= -32
MCLin6(2,0,1):  u(2,0,1) >= -0
MCLin7(2,0,1):  -54 y(0,2,1) - u(2,0,1) <= -0
MCLin8(2,0,1):  21 y(0,2,1) + v(2,0,1) - u(2,0,1) <= 21
MCLin9(2,0,1):  21 y(0,2,1) - u(2,0,1) >= -0
MCLin10(2,0,1):  -54 y(0,2,1) + v(2,0,1) - u(2,0,1) >= -54
MCLinV(0,2,2):  x(0,2) - v(0,2,2) - x(2,2) = 3
MCLinV(2,0,2):  - x(0,2) - v(2,0,2) + x(2,2) = 10
MCLin1(0,2,2):  u(0,2,2) >= -0
MCLin2(0,2,2):  -54 y(2,0,2) - u(0,2,2) <= -0
MCLin3(0,2,2):  21 y(2,0,2) + v(0,2,2) - u(0,2,2) <= 21
MCLin4(0,2,2):  21 y(2,0,2) - u(0,2,2) >= -0
MCLin5(0,2,2):  -54 y(2,0,2) + v(0,2,2) - u(0,2,2) >= -54
MCLin6(2,0,2):  u(2,0,2) >= -0
MCLin7(2,0,2):  -34 y(0,2,2) - u(2,0,2) <= -0
MCLin8(2,0,2):  41 y(0,2,2) + v(2,0,2) - u(2,0,2) <= 41
MCLin9(2,0,2):  41 y(0,2,2) - u(2,0,2) >= -0
MCLin10(2,0,2):  -34 y(0,2,2) + v(2,0,2) - u(2,0,2) >= -34
MCLinV(1,2,0):  x(1,0) - v(1,2,0) - x(2,0) = 1
MCLinV(2,1,0):  - x(1,0) - v(2,1,0) + x(2,0) = 9
MCLin1(1,2,0):  u(1,2,0) >= -0
MCLin2(1,2,0):  -45 y(2,1,0) - u(1,2,0) <= -0
MCLin3(1,2,0):  29 y(2,1,0) + v(1,2,0) - u(1,2,0) <= 29
MCLin4(1,2,0):  29 y(2,1,0) - u(1,2,0) >= -0
MCLin5(1,2,0):  -45 y(2,1,0) + v(1,2,0) - u(1,2,0) >= -45
MCLin6(2,1,0):  u(2,1,0) >= -0
MCLin7(2,1,0):  -39 y(1,2,0) - u(2,1,0) <= -0
MCLin8(2,1,0):  35 y(1,2,0) + v(2,1,0) - u(2,1,0) <= 35
MCLin9(2,1,0):  35 y(1,2,0) - u(2,1,0) >= -0
MCLin10(2,1,0):  -39 y(1,2,0) + v(2,1,0) - u(2,1,0) >= -39
MCLinV(1,2,1):  x(1,1) - v(1,2,1) - x(2,1) = 9
MCLinV(2,1,1):  - x(1,1) - v(2,1,1) + x(2,1) = 6
MCLin1(1,2,1):  u(1,2,1) >= -0
MCLin2(1,2,1):  -50 y(2,1,1) - u(1,2,1) <= -0
MCLin3(1,2,1):  24 y(2,1,1) + v(1,2,1) - u(1,2,1) <= 24
MCLin4(1,2,1):  24 y(2,1,1) - u(1,2,1) >= -0
MCLin5(1,2,1):  -50 y(2,1,1) + v(1,2,1) - u(1,2,1) >= -50
MCLin6(2,1,1):  u(2,1,1) >= -0
MCLin7(2,1,1):  -39 y(1,2,1) - u(2,1,1) <= -0
MCLin8(2,1,1):  35 y(1,2,1) + v(2,1,1) - u(2,1,1) <= 35
MCLin9(2,1,1):  35 y(1,2,1) - u(2,1,1) >= -0
MCLin10(2,1,1):  -39 y(1,2,1) + v(2,1,1) - u(2,1,1) >= -39
MCLinV(1,2,2):  x(1,2) - v(1,2,2) - x(2,2) = 3
MCLinV(2,1,2):  - x(1,2) - v(2,1,2) + x(2,2) = 6
MCLin1(1,2,2):  u(1,2,2) >= -0
MCLin2(1,2,2):  -39 y(2,1,2) - u(1,2,2) <= -0
MCLin3(1,2,2):  35 y(2,1,2) + v(1,2,2) - u(1,2,2) <= 35
MCLin4(1,2,2):  35 y(2,1,2) - u(1,2,2) >= -0
MCLin5(1,2,2):  -39 y(2,1,2) + v(1,2,2) - u(1,2,2) >= -39
MCLin6(2,1,2):  u(2,1,2) >= -0
MCLin7(2,1,2):  -44 y(1,2,2) - u(2,1,2) <= -0
MCLin8(2,1,2):  30 y(1,2,2) + v(2,1,2) - u(2,1,2) <= 30
MCLin9(2,1,2):  30 y(1,2,2) - u(2,1,2) >= -0
MCLin10(2,1,2):  -44 y(1,2,2) + v(2,1,2) - u(2,1,2) >= -44
makespan(0):  C - x(0,1) >= 2
makespan(1):  C - x(1,2) >= 6
makespan(2):  C - x(2,2) >= 3
Bounds
 0 <= C <= 54
 10 <= x(0,0) <= 44
 0 <= y(0,1,0) <= 1
 0 <= y(1,0,0) <= 1
 -38 <= v(0,1,0) <= 29
 -46 <= v(1,0,0) <= 21
 -540 <= u(0,1,0)
 -540 <= u(1,0,0)
 0 <= y(0,2,0) <= 1
 0 <= y(2,0,0) <= 1
 -41 <= v(0,2,0) <= 34
 -43 <= v(2,0,0) <= 32
 -540 <= u(0,2,0)
 -540 <= u(2,0,0)
 6 <= x(1,0) <= 39
 0 <= y(1,2,0) <= 1
 0 <= y(2,1,0) <= 1
 -45 <= v(1,2,0) <= 29
 -39 <= v(2,1,0) <= 35
 -540 <= u(1,2,0)
 -540 <= u(2,1,0)
 9 <= x(2,0) <= 50
 18 <= x(0,1) <= 52
 0 <= y(0,1,1) <= 1
 0 <= y(1,0,1) <= 1
 -21 <= v(0,1,1) <= 46
 -54 <= v(1,0,1) <= 13
 -540 <= u(0,1,1)
 -540 <= u(1,0,1)
 0 <= y(0,2,1) <= 1
 0 <= y(2,0,1) <= 1
 -32 <= v(0,2,1) <= 43
 -54 <= v(2,0,1) <= 21
 -540 <= u(0,2,1)
 -540 <= u(2,0,1)
 0 <= x(1,1) <= 33
 0 <= y(1,2,1) <= 1
 0 <= y(2,1,1) <= 1
 -50 <= v(1,2,1) <= 24
 -39 <= v(2,1,1) <= 35
 -540 <= u(1,2,1)
 -540 <= u(2,1,1)
 0 <= x(2,1) <= 41
 0 <= x(0,2) <= 34
 0 <= y(0,1,2) <= 1
 0 <= y(1,0,2) <= 1
 -54 <= v(0,1,2) <= 13
 -29 <= v(1,0,2) <= 38
 -540 <= u(0,1,2)
 -540 <= u(1,0,2)
 0 <= y(0,2,2) <= 1
 0 <= y(2,0,2) <= 1
 -54 <= v(0,2,2) <= 21
 -34 <= v(2,0,2) <= 41
 -540 <= u(0,2,2)
 -540 <= u(2,0,2)
 15 <= x(1,2) <= 48
 0 <= y(1,2,2) <= 1
 0 <= y(2,1,2) <= 1
 -39 <= v(1,2,2) <= 35
 -44 <= v(2,1,2) <= 30
 -540 <= u(1,2,2)
 -540 <= u(2,1,2)
 10 <= x(2,2) <= 51
Integers
C x(0,0) y(0,1,0) y(1,0,0) v(0,1,0) v(1,0,0) u(0,1,0) u(1,0,0) y(0,2,0) y(2,0,0) 
v(0,2,0) v(2,0,0) u(0,2,0) u(2,0,0) x(1,0) y(1,2,0) y(2,1,0) v(1,2,0) v(2,1,0) u(1,2,0) 
u(2,1,0) x(2,0) x(0,1) y(0,1,1) y(1,0,1) v(0,1,1) v(1,0,1) u(0,1,1) u(1,0,1) y(0,2,1) 
y(2,0,1) v(0,2,1) v(2,0,1) u(0,2,1) u(2,0,1) x(1,1) y(1,2,1) y(2,1,1) v(1,2,1) v(2,1,1) 
u(1,2,1) u(2,1,1) x(2,1) x(0,2) y(0,1,2) y(1,0,2) v(0,1,2) v(1,0,2) u(0,1,2) u(1,0,2) 
y(0,2,2) y(2,0,2) v(0,2,2) v(2,0,2) u(0,2,2) u(2,0,2) x(1,2) y(1,2,2) y(2,1,2) v(1,2,2) 
v(2,1,2) u(1,2,2) u(2,1,2) x(2,2) 
End
